
  22   10
  10   10   10   10   10   10   10   10   10   10

   0   0   0   0   0   0   0   0   0   0   0   5 2 3 4 6 21 
   1  10  10  10  10  10  10  10  10  10  10   3 20 15 5 
   5  10  10  10  10  10  10  10  10  10  10   3 20 15 7 
   3  10  10  10  10  10  10  10  10  10  10   3 20 10 9 
   3  10  10  10  10  10  10  10  10  10  10   1 7 
   9  10  10  10  10  10  10  10  10  10  10   2 15 9 
   7  10  10  10  10  10  10  10  10  10  10   1 8 
  10  10  10  10  10  10  10  10  10  10  10   1 9 
   4  10  10  10  10  10  10  10  10  10  10   2 19 11 
   4  10  10  10  10  10  10  10  10  10  10   2 15 11 
   3  10  10  10  10  10  10  10  10  10  10   2 18 12 
   3  10  10  10  10  10  10  10  10  10  10   2 17 13 
  10  10  10  10  10  10  10  10  10  10  10   1 14 
   8  10  10  10  10  10  10  10  10  10  10   1 16 
  10  10  10  10  10  10  10  10  10  10  10   1 16 
   8  10  10  10  10  10  10  10  10  10  10   1 22
   7  10  10  10  10  10  10  10  10  10  10   1 22
   3  10  10  10  10  10  10  10  10  10  10   1 22
   3  10  10  10  10  10  10  10  10  10  10   1 22
   2  10  10  10  10  10  10  10  10  10  10   1 22
   9  10  10  10  10  10  10  10  10  10  10   1 22
   0   0   0   0   0   0   0   0   0   0   0   0 
